c Output_time 26.03.2020 18:15:11_+0100 1585242911972797772
c ** Program information **
c program_name                          "QBRG_debug"
c version                               "0.3.20"
c date                                  "25.3.2020"
c gid_id                                "673970833836058123f633335630c185360d632e"
c author                                "Oliver Kullmann"
c url                                   "https://github.com/OKullmann/oklibrary/blob/master/Satisfiability/Transformers/Generators/Random/QBRG.cpp"
c ** Machine information **
c machine_name                          "chyna-Lenovo-G50-70"
c bogomips                              3791.08
c ** Compilation information **
c compiler_version                      "g++ 7.5.0"
c compilation_date                      "Mar_26_2020 11:16:30"
c compilation_options                   "--std=c++17 -pedantic -fmax-errors=5 -Wall -Wextra -g -D_GLIBCXX_DEBUG"
c NDEBUG                                0
c OPTIMIZE                              0
c ** Parameters **
c command-line                          "./QBRG_debug" "a40 e40 a40 40" "222*1,1|2-2,1|3-3,1|4-4,1" "" "1,t" ""
c output                                "QuBlRaGe_160_222_1585242911972636880.qdimacs"
c options                               "filtered,renamed"
c num_quantifier_blocks                 4
c  quantifier_blocks                    1:a1-40 2:e41-80 3:a81-120 4:e121-160
c num_clause-blocks                     1
c  clause-blocks                        222 * {1-40,1,1/2} | {41-80,1,1/2} | {81-120,1,1/2} | {121-160,1,1/2}
c num_e-seeds                           37+2=39
c  e-seeds                              1 0 1 0 5 160 2 40 0 40 1 40 0 40 1 222 4 1 1 1 1 2 2 2 1 1 2 3 3 1 1 2 4 4 1 1 2 1 1585242911972636286
p cnf 160 222
a 1 2 3 4 5 6 7 8 9 10 11 12 13 14 15 16 17 18 19 20 21 22 23 24 25 26 27 28 29 30 31 32 33 34 35 36 37 38 39 40 0
e 41 42 43 44 45 46 47 48 49 50 51 52 53 54 55 56 57 58 59 60 61 62 63 64 65 66 67 68 69 70 71 72 73 74 75 76 77 78 79 80 0
a 81 82 83 84 85 86 87 88 89 90 91 92 93 94 95 96 97 98 99 100 101 102 103 104 105 106 107 108 109 110 111 112 113 114 115 116 117 118 119 120 0
e 121 122 123 124 125 126 127 128 129 130 131 132 133 134 135 136 137 138 139 140 141 142 143 144 145 146 147 148 149 150 151 152 153 154 155 156 157 158 159 160 0
-10 64 -86 -121 0
-30 80 86 -121 0
21 48 -87 -121 0
32 -59 93 -121 0
-25 -49 103 -121 0
-35 -73 87 121 0
15 -49 -88 121 0
1 45 92 121 0
-34 61 -111 121 0
19 48 -98 -122 0
-31 69 -108 -122 0
20 54 -86 122 0
19 -72 -98 122 0
-32 -74 -104 122 0
4 59 111 122 0
-22 67 113 122 0
23 -61 99 -123 0
36 -80 110 -123 0
27 62 82 123 0
7 -54 -101 123 0
33 57 101 123 0
-14 55 -106 123 0
28 77 107 123 0
25 -79 118 123 0
11 70 85 -124 0
-8 74 -110 124 0
-32 -53 108 -125 0
31 -78 -98 125 0
18 -62 107 125 0
16 -50 108 -126 0
-5 -79 -82 126 0
-30 -72 88 126 0
8 61 -93 126 0
28 49 -104 126 0
-23 -48 -115 126 0
-35 42 81 -127 0
11 51 100 -127 0
-10 72 118 -127 0
-17 -57 91 127 0
27 52 82 -128 0
-2 -73 -84 -128 0
31 -55 -116 -128 0
30 -75 -116 -128 0
37 -77 -95 128 0
10 66 120 128 0
38 -48 91 -129 0
16 -46 95 -129 0
-27 43 -87 129 0
24 -43 -117 129 0
-25 -69 92 -130 0
-25 71 98 -130 0
39 60 115 -130 0
32 -48 83 -131 0
10 -49 83 -131 0
37 71 -86 -131 0
23 58 -99 -131 0
21 76 108 -131 0
38 41 93 131 0
-9 57 105 131 0
1 44 100 -132 0
18 -69 -103 -132 0
-6 -62 117 -132 0
-16 51 -83 132 0
-8 -67 -83 132 0
34 58 -85 -133 0
27 76 -95 -133 0
22 -47 -97 -133 0
-17 64 112 -133 0
-39 77 -119 -133 0
16 -52 92 133 0
-29 53 -104 133 0
14 -51 -105 133 0
-36 43 113 133 0
39 67 100 -134 0
-15 55 -103 134 0
21 46 -119 134 0
11 -73 81 -135 0
7 -55 105 -135 0
-25 -80 90 135 0
5 -57 91 135 0
-25 42 93 135 0
-10 60 -99 135 0
-13 43 105 135 0
1 62 110 135 0
-12 64 -114 135 0
3 76 -89 -136 0
-20 -51 -111 -136 0
30 -71 82 136 0
-39 -49 85 136 0
-29 68 -97 136 0
27 -57 -102 136 0
-9 75 -118 136 0
22 -61 119 136 0
-17 -43 106 -137 0
-26 -53 -99 -138 0
-35 -45 -104 -138 0
26 74 90 138 0
-1 -70 94 138 0
26 71 -103 138 0
1 59 -91 -139 0
9 59 -98 -139 0
9 55 86 139 0
-38 -79 -91 139 0
-31 -53 -81 -140 0
13 53 -90 -140 0
25 53 92 -140 0
-19 -78 99 -140 0
1 -61 102 -140 0
16 56 -118 -140 0
22 -43 85 140 0
-27 72 89 140 0
18 -46 98 140 0
21 52 82 -141 0
34 69 -99 -141 0
9 -58 99 -141 0
-8 61 -100 -141 0
-29 41 114 -141 0
23 57 116 -141 0
-4 49 -97 141 0
-25 67 -99 141 0
-34 -43 -115 141 0
38 60 -120 141 0
26 61 97 -142 0
-35 -58 84 142 0
35 -73 -91 142 0
-12 69 91 142 0
-19 -58 89 -143 0
32 67 -116 -143 0
7 77 117 -143 0
3 -61 119 -143 0
-26 -62 119 -143 0
-30 -73 111 143 0
37 -63 83 -144 0
19 -64 -88 -144 0
8 -80 -98 -144 0
-24 -52 115 -144 0
-26 -42 116 -144 0
-5 60 87 144 0
-1 -59 103 144 0
-13 -70 103 144 0
30 80 -107 144 0
36 -70 81 -145 0
14 61 94 -145 0
-32 59 93 145 0
-12 -62 -90 -146 0
-9 -76 -96 -146 0
-16 -62 114 -146 0
-30 51 120 -146 0
23 71 -100 146 0
40 46 100 146 0
4 54 -101 146 0
28 -74 -119 146 0
-24 74 -87 -147 0
13 51 107 -147 0
11 68 114 -147 0
8 45 116 -147 0
-30 -59 103 147 0
6 77 93 -148 0
-21 -68 -109 -148 0
39 -46 109 -148 0
22 47 99 148 0
-37 -46 -114 148 0
7 -49 -86 149 0
6 -49 -92 149 0
-31 41 95 -150 0
-4 52 103 -150 0
-31 -72 -115 -150 0
8 -65 -92 150 0
14 -55 -99 -151 0
27 68 105 -151 0
13 -56 115 -151 0
10 -61 84 151 0
6 46 85 151 0
-4 -71 95 151 0
12 -70 -99 -152 0
19 66 -104 -152 0
13 -58 109 -152 0
28 52 -92 152 0
-40 -65 -120 152 0
-35 -70 98 -153 0
-28 -51 85 153 0
38 -49 87 153 0
-25 70 -85 -154 0
-5 60 -96 -154 0
39 58 -85 154 0
30 -72 101 154 0
30 42 -100 -155 0
32 42 86 155 0
39 -68 -92 155 0
-32 77 99 155 0
-30 54 116 155 0
8 61 82 -156 0
16 -41 87 156 0
-32 -46 101 156 0
26 54 109 156 0
38 69 94 -157 0
22 -73 106 -157 0
-13 -46 114 -157 0
30 43 116 -157 0
-26 58 88 157 0
-24 -48 103 157 0
-15 -57 81 -158 0
-16 -73 -111 -158 0
-12 54 111 -158 0
-17 -51 -87 158 0
-27 49 -113 158 0
8 54 -97 -159 0
-20 -71 101 -159 0
-40 76 -82 159 0
2 -44 -87 159 0
21 -73 93 159 0
36 41 -81 -160 0
-38 63 82 -160 0
-22 67 -86 -160 0
36 -59 92 -160 0
-33 -73 -102 -160 0
-2 65 -111 -160 0
33 -43 119 -160 0
-12 63 -82 160 0
-28 76 92 160 0
-30 -57 -94 160 0
12 68 -111 160 0
